(set-logic QF_S)
(declare-fun var0 () String)
(declare-fun var1 () String)
(declare-fun var2 () Int)
(declare-fun var3 () String)
(declare-fun var4 () Int)
(declare-fun var5 () Int)
(declare-fun var6 () Int)
(declare-fun var7 () String)
(assert (<= (str.indexof var0 var1 var2) (str.len (str.substr var3 var4 var5))))
(assert (>= var6 var5))
(assert (str.prefixof var7 var7))
(assert (> (str.to.int var1) (str.len var0)))
(check-sat)